97 205 139  86  60 220  65 111 115 227  95  82 225 168 103 266 205 149 
129 103  71 105 258 154 112  65 204 150  87 176 137 142 204 148 148
219 125 175 386 269 134 184 313 201 215 267 248 271 274 236 272
167 182 180 162 208  39 102 227  60  86  34  96 129  69  58 
 51 296 150  42 131 268  88 131 245 201 175 275 218 202  
279 114  56 150 278  46 133 266 214 162 302 242 203  
178 328 206 147 308 172 203 165 121 251 216 122
169 151 227 133 104 242 182  84 290 230 146 
172 309  68 169 286 242 208 315 259 240 
140 195  51 117  72 104 153  93  88   
320 146  64  68 143 106  88  81
174 311 258 196 347 288 243  
144  86  57 189 128  71   
 61 165  51  32 105  
106 110  56  49   
215 159  64 
 61 155 
105 
